c turning on binary mode checking
c parsing input formula with 259840 variables and 1039934 clauses
c finished parsing, read 23578578 bytes from proof file
c detected empty clause; start verification via backward checking
c 18929 of 1039934 clauses in core                            
c 24682 of 607190 lemmas in core using 165821 resolution steps
c 0 RAT lemmas in core; 1502 redundant literals in core lemmas
s VERIFIED
c verification time: 3.173 seconds
